
Gurobi 8.0.0 (win64, Python) logging started 08/27/18 20:49:36

Academic license - for non-commercial use only
Freed default Gurobi environment

Gurobi 8.0.0 (win64, Python) logging started 08/28/18 00:13:20

Academic license - for non-commercial use only
Freed default Gurobi environment

Gurobi 8.0.0 (win64, Python) logging started 11/04/18 15:03:45

Academic license - for non-commercial use only
Freed default Gurobi environment

Gurobi 8.0.0 (win64, Python) logging started 11/04/18 15:14:47

Academic license - for non-commercial use only
Freed default Gurobi environment

Gurobi 8.0.0 (win64, Python) logging started 11/04/18 15:44:36

Academic license - for non-commercial use only
Freed default Gurobi environment

Gurobi 8.0.0 (win64, Python) logging started 11/04/18 16:30:52

Academic license - for non-commercial use only
Freed default Gurobi environment

Gurobi 8.0.0 (win64, Python) logging started 11/04/18 16:36:31

Academic license - for non-commercial use only
Freed default Gurobi environment

Gurobi 8.0.0 (win64, Python) logging started 11/04/18 16:41:02

Academic license - for non-commercial use only
Freed default Gurobi environment

Gurobi 8.0.0 (win64, Python) logging started 11/04/18 17:55:01

Academic license - for non-commercial use only
Freed default Gurobi environment

Gurobi 8.0.0 (win64, Python) logging started 11/04/18 18:04:40

Academic license - for non-commercial use only
Freed default Gurobi environment

Gurobi 8.0.0 (win64, Python) logging started 11/04/18 18:12:57

Academic license - for non-commercial use only
Freed default Gurobi environment

Gurobi 8.0.0 (win64, Python) logging started 11/04/18 18:19:41

Academic license - for non-commercial use only
Freed default Gurobi environment

Gurobi 8.0.0 (win64, Python) logging started 11/04/18 18:25:59

Academic license - for non-commercial use only
Freed default Gurobi environment

Gurobi 8.0.0 (win64, Python) logging started 11/04/18 18:29:45

Academic license - for non-commercial use only
Freed default Gurobi environment

Gurobi 8.0.0 (win64, Python) logging started 11/04/18 18:33:28

Academic license - for non-commercial use only
Freed default Gurobi environment

Gurobi 8.0.0 (win64, Python) logging started 11/04/18 18:37:05

Academic license - for non-commercial use only
Freed default Gurobi environment

Gurobi 8.0.0 (win64, Python) logging started 11/04/18 18:41:18

Academic license - for non-commercial use only
Freed default Gurobi environment

Gurobi 8.0.0 (win64, Python) logging started 11/29/18 14:59:03

Academic license - for non-commercial use only
Freed default Gurobi environment

Gurobi 8.0.0 (win64, Python) logging started 11/29/18 15:18:57

Academic license - for non-commercial use only
Freed default Gurobi environment

Gurobi 8.0.0 (win64, Python) logging started 11/29/18 15:24:21

Academic license - for non-commercial use only
Freed default Gurobi environment

Gurobi 8.0.0 (win64, Python) logging started 03/04/19 12:28:01

Academic license - for non-commercial use only

Gurobi 8.0.0 (win64, Python) logging started 03/05/19 14:46:59

Academic license - for non-commercial use only

Gurobi 8.0.0 (win64, Python) logging started 03/05/19 17:23:58

Academic license - for non-commercial use only

Gurobi 8.0.0 (win64, Python) logging started 03/05/19 19:47:55

Academic license - for non-commercial use only
Freed default Gurobi environment

Gurobi 8.0.0 (win64, Python) logging started 03/06/19 10:31:15

Academic license - for non-commercial use only
Freed default Gurobi environment

Gurobi 8.0.0 (win64, Python) logging started 03/06/19 10:31:48

Academic license - for non-commercial use only
Freed default Gurobi environment

Gurobi 8.0.0 (win64, Python) logging started 03/06/19 10:40:58

Academic license - for non-commercial use only
Freed default Gurobi environment

Gurobi 8.0.0 (win64, Python) logging started 03/06/19 11:08:10

Academic license - for non-commercial use only
Freed default Gurobi environment

Gurobi 8.0.0 (win64, Python) logging started 03/06/19 11:14:19

Academic license - for non-commercial use only
Freed default Gurobi environment

Gurobi 8.0.0 (win64, Python) logging started 03/27/19 08:36:19

Academic license - for non-commercial use only
Freed default Gurobi environment

Gurobi 8.0.0 (win64, Python) logging started 04/08/19 09:02:15

Academic license - for non-commercial use only
Freed default Gurobi environment

Gurobi 8.0.0 (win64, Python) logging started 04/08/19 09:05:33

Academic license - for non-commercial use only
Freed default Gurobi environment

Gurobi 8.0.0 (win64, Python) logging started 04/08/19 09:11:16

Academic license - for non-commercial use only
Freed default Gurobi environment

Gurobi 8.0.0 (win64, Python) logging started 04/08/19 09:12:06

Academic license - for non-commercial use only
Freed default Gurobi environment

Gurobi 8.1.1 (linux64, Python) logging started Wed 24 Apr 2019 11:58:29 AM CEST


Gurobi 8.1.1 (linux64, Python) logging started Wed 24 Apr 2019 11:59:18 AM CEST


Gurobi 8.1.1 (linux64, Python) logging started Wed 24 Apr 2019 12:00:15 PM CEST


Gurobi 8.1.1 (linux64, Python) logging started Wed 24 Apr 2019 12:00:54 PM CEST

Academic license - for non-commercial use only

Gurobi 8.1.1 (linux64, Python) logging started Wed 24 Apr 2019 12:55:59 PM CEST

Academic license - for non-commercial use only

Gurobi 8.1.1 (linux64, Python) logging started Wed 24 Apr 2019 12:56:14 PM CEST

Academic license - for non-commercial use only

Gurobi 8.1.1 (linux64, Python) logging started Sa 06 Jul 2019 12:14:11 CEST

Academic license - for non-commercial use only

Gurobi 8.1.1 (linux64, Python) logging started Sa 06 Jul 2019 12:16:16 CEST

Academic license - for non-commercial use only

Gurobi 8.1.1 (linux64, Python) logging started Sa 06 Jul 2019 12:16:45 CEST

Academic license - for non-commercial use only

Gurobi 8.1.1 (linux64, Python) logging started Sa 06 Jul 2019 21:55:43 CEST

Academic license - for non-commercial use only
